param n := 120;
param c := 150;
param : V : p w :=
   0	  52	  42
   1	 108	  98
   2	  37	  27
   3	  31	  21
   4	  81	  71
   5	  81	  71
   6	  88	  78
   7	  86	  76
   8	  67	  57
   9	  34	  24
  10	 101	  91
  11	  94	  84
  12	  45	  35
  13	  35	  25
  14	  87	  77
  15	 106	  96
  16	 107	  97
  17	  99	  89
  18	  40	  30
  19	  96	  86
  20	  91	  81
  21	  49	  39
  22	  85	  75
  23	  76	  66
  24	  95	  85
  25	  46	  36
  26	  70	  60
  27	  66	  56
  28	  60	  50
  29	  85	  75
  30	  85	  75
  31	  47	  37
  32	  97	  87
  33	 105	  95
  34	  31	  21
  35	 109	  99
  36	  52	  42
  37	  67	  57
  38	  41	  31
  39	  47	  37
  40	  52	  42
  41	  50	  40
  42	  79	  69
  43	 101	  91
  44	  55	  45
  45	 107	  97
  46	  94	  84
  47	 100	  90
  48	  62	  52
  49	  53	  43
  50	  78	  68
  51	  63	  53
  52	  47	  37
  53	  75	  65
  54	  89	  79
  55	  83	  73
  56	 102	  92
  57	  97	  87
  58	  30	  20
  59	  30	  20
  60	  83	  73
  61	  52	  42
  62	  62	  52
  63	  30	  20
  64	  34	  24
  65	  86	  76
  66	  81	  71
  67	  82	  72
  68	  31	  21
  69	  31	  21
  70	  92	  82
  71	 102	  92
  72	  88	  78
  73	  97	  87
  74	  60	  50
  75	  51	  41
  76	  41	  31
  77	  83	  73
  78	  99	  89
  79	  69	  59
  80	  98	  88
  81	  50	  40
  82	  81	  71
  83	  79	  69
  84	  55	  45
  85	  67	  57
  86	  59	  49
  87	  78	  68
  88	  94	  84
  89	  42	  32
  90	  79	  69
  91	  87	  77
  92	 102	  92
  93	 108	  98
  94	  67	  57
  95	  49	  39
  96	  42	  32
  97	  33	  23
  98	 109	  99
  99	 101	  91
 100	  58	  48
 101	  31	  21
 102	  80	  70
 103	  53	  43
 104	  83	  73
 105	  79	  69
 106	  75	  65
 107	  67	  57
 108	  77	  67
 109	  38	  28
 110	  94	  84
 111	  52	  42
 112	  71	  61
 113	 102	  92
 114	  92	  82
 115	  44	  34
 116	  84	  74
 117	  65	  55
 118	  70	  60
 119	  79	  69
;

set E :=
   0	   1
   0	   7
   0	   9
   0	  11
   0	  12
   0	  13
   0	  14
   0	  18
   0	  19
   0	  25
   0	  28
   0	  29
   0	  31
   0	  34
   0	  35
   0	  37
   0	  39
   0	  42
   0	  43
   0	  47
   0	  52
   0	  56
   0	  61
   0	  62
   0	  64
   0	  66
   0	  67
   0	  68
   0	  73
   0	  75
   0	  76
   0	  77
   0	  78
   0	  81
   0	  84
   0	  87
   0	  91
   0	  93
   0	  95
   0	  97
   0	  98
   0	 101
   0	 102
   0	 103
   0	 106
   0	 114
   0	 115
   0	 119
   1	   4
   1	   6
   1	   9
   1	  10
   1	  13
   1	  16
   1	  17
   1	  18
   1	  19
   1	  21
   1	  24
   1	  33
   1	  35
   1	  41
   1	  42
   1	  44
   1	  45
   1	  46
   1	  47
   1	  48
   1	  50
   1	  51
   1	  52
   1	  55
   1	  60
   1	  64
   1	  66
   1	  68
   1	  70
   1	  73
   1	  78
   1	  80
   1	  82
   1	  85
   1	  87
   1	  92
   1	  94
   1	  96
   1	 101
   1	 104
   1	 107
   1	 108
   1	 111
   1	 112
   1	 118
   2	   4
   2	   8
   2	   9
   2	  11
   2	  12
   2	  17
   2	  19
   2	  24
   2	  25
   2	  28
   2	  30
   2	  33
   2	  35
   2	  36
   2	  38
   2	  39
   2	  42
   2	  43
   2	  47
   2	  48
   2	  49
   2	  52
   2	  54
   2	  56
   2	  62
   2	  63
   2	  64
   2	  67
   2	  71
   2	  73
   2	  77
   2	  78
   2	  82
   2	  85
   2	  90
   2	  91
   2	  92
   2	  93
   2	  95
   2	 112
   2	 115
   2	 117
   2	 118
   3	   5
   3	   8
   3	   9
   3	  13
   3	  14
   3	  16
   3	  19
   3	  20
   3	  23
   3	  26
   3	  32
   3	  37
   3	  39
   3	  40
   3	  41
   3	  44
   3	  46
   3	  48
   3	  50
   3	  52
   3	  54
   3	  59
   3	  60
   3	  61
   3	  66
   3	  68
   3	  73
   3	  77
   3	  82
   3	  83
   3	  87
   3	  91
   3	  92
   3	  97
   3	  98
   3	 100
   3	 101
   3	 102
   3	 103
   3	 105
   3	 106
   3	 107
   3	 108
   3	 110
   3	 115
   3	 116
   4	   5
   4	   7
   4	   8
   4	   9
   4	  10
   4	  11
   4	  14
   4	  23
   4	  29
   4	  36
   4	  37
   4	  38
   4	  39
   4	  41
   4	  44
   4	  50
   4	  51
   4	  55
   4	  60
   4	  62
   4	  63
   4	  64
   4	  65
   4	  67
   4	  69
   4	  70
   4	  73
   4	  77
   4	  80
   4	  82
   4	  83
   4	  84
   4	  85
   4	  86
   4	  89
   4	  93
   4	  95
   4	  96
   4	  99
   4	 100
   4	 102
   4	 104
   4	 105
   4	 107
   4	 109
   4	 110
   4	 111
   4	 112
   4	 116
   5	   8
   5	   9
   5	  14
   5	  15
   5	  21
   5	  24
   5	  25
   5	  28
   5	  30
   5	  31
   5	  34
   5	  35
   5	  37
   5	  41
   5	  45
   5	  46
   5	  48
   5	  53
   5	  56
   5	  57
   5	  59
   5	  61
   5	  62
   5	  67
   5	  71
   5	  72
   5	  74
   5	  76
   5	  78
   5	  79
   5	  80
   5	  82
   5	  83
   5	  84
   5	  85
   5	  90
   5	  92
   5	  95
   5	  96
   5	  98
   5	  99
   5	 100
   5	 111
   5	 113
   5	 114
   5	 115
   5	 117
   6	   8
   6	   9
   6	  10
   6	  14
   6	  18
   6	  19
   6	  21
   6	  28
   6	  29
   6	  36
   6	  37
   6	  39
   6	  40
   6	  41
   6	  43
   6	  44
   6	  49
   6	  51
   6	  53
   6	  54
   6	  58
   6	  60
   6	  63
   6	  75
   6	  79
   6	  85
   6	  87
   6	  89
   6	  90
   6	  93
   6	  95
   6	 102
   6	 104
   6	 105
   6	 106
   6	 108
   6	 111
   6	 115
   6	 116
   6	 118
   6	 119
   7	  10
   7	  11
   7	  14
   7	  17
   7	  19
   7	  20
   7	  24
   7	  25
   7	  29
   7	  44
   7	  46
   7	  47
   7	  50
   7	  51
   7	  52
   7	  53
   7	  58
   7	  59
   7	  64
   7	  65
   7	  66
   7	  68
   7	  69
   7	  70
   7	  72
   7	  73
   7	  74
   7	  77
   7	  80
   7	  81
   7	  82
   7	  85
   7	  89
   7	  93
   7	  94
   7	  96
   7	 100
   7	 105
   7	 106
   7	 108
   7	 110
   7	 111
   7	 113
   7	 119
   8	   9
   8	  10
   8	  12
   8	  13
   8	  19
   8	  20
   8	  21
   8	  22
   8	  25
   8	  28
   8	  29
   8	  32
   8	  35
   8	  36
   8	  39
   8	  40
   8	  42
   8	  45
   8	  46
   8	  48
   8	  49
   8	  53
   8	  61
   8	  62
   8	  63
   8	  66
   8	  67
   8	  68
   8	  69
   8	  71
   8	  72
   8	  73
   8	  77
   8	  79
   8	  87
   8	  90
   8	  94
   8	  95
   8	  97
   8	 100
   8	 102
   8	 103
   8	 104
   8	 105
   8	 108
   8	 109
   8	 110
   8	 111
   8	 119
   9	  11
   9	  14
   9	  15
   9	  16
   9	  18
   9	  19
   9	  23
   9	  24
   9	  26
   9	  27
   9	  28
   9	  30
   9	  32
   9	  41
   9	  42
   9	  43
   9	  45
   9	  46
   9	  48
   9	  49
   9	  53
   9	  54
   9	  55
   9	  58
   9	  59
   9	  60
   9	  61
   9	  64
   9	  65
   9	  69
   9	  71
   9	  74
   9	  77
   9	  78
   9	  80
   9	  83
   9	  89
   9	  91
   9	  92
   9	  93
   9	  94
   9	  96
   9	 101
   9	 103
   9	 106
   9	 107
   9	 111
   9	 115
   9	 116
   9	 117
   9	 118
  10	  12
  10	  13
  10	  14
  10	  19
  10	  24
  10	  28
  10	  30
  10	  31
  10	  35
  10	  37
  10	  38
  10	  41
  10	  42
  10	  43
  10	  44
  10	  48
  10	  49
  10	  58
  10	  64
  10	  69
  10	  74
  10	  75
  10	  76
  10	  79
  10	  80
  10	  82
  10	  83
  10	  84
  10	  88
  10	  89
  10	  91
  10	  92
  10	  93
  10	  94
  10	  96
  10	  98
  10	 100
  10	 101
  10	 102
  10	 103
  10	 104
  10	 108
  10	 109
  10	 110
  10	 111
  10	 113
  10	 118
  11	  14
  11	  16
  11	  17
  11	  20
  11	  22
  11	  23
  11	  25
  11	  27
  11	  29
  11	  31
  11	  35
  11	  36
  11	  39
  11	  40
  11	  45
  11	  49
  11	  51
  11	  52
  11	  53
  11	  57
  11	  59
  11	  61
  11	  65
  11	  67
  11	  75
  11	  83
  11	  85
  11	  86
  11	  87
  11	  88
  11	  89
  11	  91
  11	  92
  11	  95
  11	  96
  11	  99
  11	 100
  11	 101
  11	 103
  11	 107
  11	 108
  11	 109
  11	 113
  12	  14
  12	  17
  12	  21
  12	  22
  12	  32
  12	  36
  12	  39
  12	  41
  12	  44
  12	  47
  12	  49
  12	  51
  12	  53
  12	  54
  12	  56
  12	  57
  12	  61
  12	  63
  12	  64
  12	  67
  12	  71
  12	  74
  12	  77
  12	  78
  12	  79
  12	  80
  12	  81
  12	  82
  12	  83
  12	  87
  12	  93
  12	  94
  12	  95
  12	  96
  12	  97
  12	  99
  12	 105
  12	 106
  12	 111
  12	 114
  13	  21
  13	  24
  13	  26
  13	  29
  13	  31
  13	  36
  13	  37
  13	  38
  13	  39
  13	  41
  13	  42
  13	  43
  13	  46
  13	  51
  13	  52
  13	  58
  13	  61
  13	  65
  13	  67
  13	  69
  13	  72
  13	  73
  13	  75
  13	  82
  13	  84
  13	  88
  13	  90
  13	  93
  13	  95
  13	  96
  13	  97
  13	  99
  13	 101
  13	 113
  13	 114
  13	 116
  13	 119
  14	  17
  14	  18
  14	  19
  14	  21
  14	  22
  14	  24
  14	  28
  14	  29
  14	  30
  14	  31
  14	  36
  14	  40
  14	  41
  14	  44
  14	  47
  14	  48
  14	  50
  14	  58
  14	  61
  14	  64
  14	  65
  14	  66
  14	  71
  14	  72
  14	  74
  14	  75
  14	  78
  14	  79
  14	  80
  14	  81
  14	  84
  14	  88
  14	  89
  14	  97
  14	  99
  14	 100
  14	 101
  14	 103
  14	 105
  14	 107
  14	 108
  14	 111
  14	 115
  14	 118
  14	 119
  15	  16
  15	  20
  15	  24
  15	  29
  15	  31
  15	  32
  15	  33
  15	  34
  15	  36
  15	  39
  15	  40
  15	  42
  15	  44
  15	  46
  15	  47
  15	  48
  15	  49
  15	  51
  15	  53
  15	  54
  15	  55
  15	  57
  15	  58
  15	  59
  15	  60
  15	  61
  15	  62
  15	  63
  15	  64
  15	  65
  15	  66
  15	  67
  15	  69
  15	  72
  15	  74
  15	  76
  15	  77
  15	  78
  15	  80
  15	  82
  15	  83
  15	  84
  15	  85
  15	  86
  15	  93
  15	  94
  15	 102
  15	 103
  15	 108
  15	 110
  15	 111
  15	 113
  15	 116
  15	 117
  16	  19
  16	  22
  16	  23
  16	  25
  16	  26
  16	  28
  16	  30
  16	  31
  16	  33
  16	  36
  16	  38
  16	  39
  16	  40
  16	  41
  16	  42
  16	  46
  16	  47
  16	  49
  16	  52
  16	  54
  16	  57
  16	  58
  16	  64
  16	  67
  16	  68
  16	  73
  16	  74
  16	  85
  16	  88
  16	  94
  16	  98
  16	 103
  16	 104
  16	 106
  16	 109
  16	 111
  16	 112
  16	 113
  16	 116
  16	 119
  17	  18
  17	  19
  17	  20
  17	  21
  17	  22
  17	  24
  17	  26
  17	  27
  17	  29
  17	  33
  17	  34
  17	  37
  17	  38
  17	  39
  17	  41
  17	  42
  17	  45
  17	  46
  17	  48
  17	  50
  17	  51
  17	  52
  17	  54
  17	  55
  17	  56
  17	  58
  17	  59
  17	  63
  17	  65
  17	  68
  17	  69
  17	  71
  17	  77
  17	  78
  17	  79
  17	  80
  17	  81
  17	  82
  17	  83
  17	  87
  17	  90
  17	  93
  17	  96
  17	  99
  17	 100
  17	 101
  17	 102
  17	 105
  17	 109
  17	 110
  17	 115
  17	 119
  18	  20
  18	  22
  18	  24
  18	  26
  18	  27
  18	  28
  18	  32
  18	  34
  18	  36
  18	  37
  18	  38
  18	  39
  18	  40
  18	  44
  18	  46
  18	  47
  18	  50
  18	  51
  18	  52
  18	  54
  18	  56
  18	  61
  18	  63
  18	  65
  18	  66
  18	  68
  18	  73
  18	  75
  18	  77
  18	  78
  18	  83
  18	  84
  18	  85
  18	  87
  18	  89
  18	  91
  18	  95
  18	 100
  18	 104
  18	 107
  18	 114
  18	 115
  19	  21
  19	  22
  19	  24
  19	  27
  19	  28
  19	  31
  19	  32
  19	  36
  19	  40
  19	  42
  19	  43
  19	  44
  19	  49
  19	  50
  19	  51
  19	  55
  19	  57
  19	  61
  19	  63
  19	  66
  19	  67
  19	  70
  19	  71
  19	  72
  19	  73
  19	  80
  19	  81
  19	  82
  19	  83
  19	  85
  19	  87
  19	  88
  19	  91
  19	  92
  19	  93
  19	  94
  19	 101
  19	 103
  19	 106
  19	 108
  19	 112
  19	 115
  19	 118
  20	  22
  20	  23
  20	  24
  20	  28
  20	  30
  20	  33
  20	  36
  20	  37
  20	  41
  20	  45
  20	  51
  20	  52
  20	  53
  20	  55
  20	  58
  20	  59
  20	  62
  20	  64
  20	  66
  20	  67
  20	  68
  20	  69
  20	  72
  20	  76
  20	  77
  20	  78
  20	  82
  20	  83
  20	  86
  20	  88
  20	  93
  20	  97
  20	  98
  20	  99
  20	 101
  20	 102
  20	 109
  20	 110
  20	 112
  20	 115
  21	  23
  21	  25
  21	  26
  21	  27
  21	  30
  21	  32
  21	  33
  21	  37
  21	  39
  21	  40
  21	  43
  21	  45
  21	  51
  21	  52
  21	  56
  21	  58
  21	  59
  21	  60
  21	  64
  21	  65
  21	  68
  21	  71
  21	  75
  21	  76
  21	  77
  21	  80
  21	  81
  21	  82
  21	  85
  21	  88
  21	  90
  21	  91
  21	  92
  21	  94
  21	  97
  21	  98
  21	 102
  21	 106
  21	 107
  21	 111
  21	 112
  21	 113
  21	 117
  21	 119
  22	  23
  22	  25
  22	  26
  22	  27
  22	  34
  22	  36
  22	  38
  22	  40
  22	  42
  22	  47
  22	  49
  22	  50
  22	  57
  22	  61
  22	  62
  22	  69
  22	  78
  22	  79
  22	  84
  22	  88
  22	  95
  22	  97
  22	  98
  22	 100
  22	 101
  22	 103
  22	 107
  22	 111
  22	 118
  23	  24
  23	  25
  23	  39
  23	  41
  23	  42
  23	  43
  23	  44
  23	  47
  23	  50
  23	  52
  23	  54
  23	  55
  23	  56
  23	  58
  23	  59
  23	  60
  23	  65
  23	  67
  23	  70
  23	  77
  23	  78
  23	  79
  23	  85
  23	  86
  23	  96
  23	  99
  23	 102
  23	 104
  23	 109
  23	 114
  23	 115
  23	 116
  23	 117
  23	 118
  24	  25
  24	  27
  24	  32
  24	  33
  24	  36
  24	  40
  24	  42
  24	  45
  24	  46
  24	  56
  24	  58
  24	  59
  24	  63
  24	  68
  24	  71
  24	  72
  24	  73
  24	  77
  24	  80
  24	  88
  24	  89
  24	  94
  24	  95
  24	  97
  24	  98
  24	  99
  24	 101
  24	 102
  24	 107
  24	 110
  24	 112
  24	 117
  24	 119
  25	  31
  25	  33
  25	  34
  25	  35
  25	  36
  25	  38
  25	  41
  25	  43
  25	  50
  25	  58
  25	  60
  25	  62
  25	  65
  25	  66
  25	  67
  25	  69
  25	  70
  25	  73
  25	  76
  25	  78
  25	  80
  25	  81
  25	  83
  25	  85
  25	  87
  25	  89
  25	  91
  25	  92
  25	  93
  25	  96
  25	  97
  25	  98
  25	 101
  25	 102
  25	 103
  25	 104
  25	 105
  25	 106
  25	 108
  25	 110
  25	 111
  25	 112
  25	 119
  26	  27
  26	  29
  26	  30
  26	  31
  26	  34
  26	  36
  26	  40
  26	  42
  26	  43
  26	  44
  26	  45
  26	  47
  26	  48
  26	  51
  26	  53
  26	  61
  26	  62
  26	  63
  26	  67
  26	  68
  26	  69
  26	  71
  26	  74
  26	  76
  26	  79
  26	  80
  26	  81
  26	  82
  26	  83
  26	  84
  26	  86
  26	  87
  26	  88
  26	  89
  26	  90
  26	  91
  26	  92
  26	  93
  26	  94
  26	 103
  26	 110
  26	 111
  26	 114
  26	 116
  26	 119
  27	  30
  27	  31
  27	  32
  27	  36
  27	  37
  27	  39
  27	  40
  27	  41
  27	  42
  27	  47
  27	  53
  27	  56
  27	  72
  27	  76
  27	  80
  27	  81
  27	  83
  27	  85
  27	  87
  27	  88
  27	  91
  27	  92
  27	  95
  27	  98
  27	  99
  27	 100
  27	 104
  27	 106
  27	 107
  27	 109
  27	 112
  27	 113
  27	 118
  28	  30
  28	  31
  28	  32
  28	  34
  28	  37
  28	  39
  28	  40
  28	  45
  28	  46
  28	  48
  28	  49
  28	  53
  28	  61
  28	  63
  28	  65
  28	  66
  28	  69
  28	  71
  28	  73
  28	  75
  28	  78
  28	  80
  28	  81
  28	  82
  28	  86
  28	  88
  28	  92
  28	  98
  28	  99
  28	 100
  28	 103
  28	 108
  28	 112
  28	 113
  28	 117
  28	 118
  29	  31
  29	  33
  29	  35
  29	  38
  29	  42
  29	  43
  29	  49
  29	  50
  29	  53
  29	  55
  29	  58
  29	  61
  29	  63
  29	  65
  29	  67
  29	  77
  29	  78
  29	  83
  29	  84
  29	  85
  29	  86
  29	  89
  29	  92
  29	  93
  29	 103
  29	 107
  29	 108
  29	 111
  29	 112
  29	 114
  29	 117
  29	 118
  30	  34
  30	  41
  30	  42
  30	  43
  30	  51
  30	  53
  30	  55
  30	  57
  30	  58
  30	  60
  30	  70
  30	  71
  30	  72
  30	  74
  30	  75
  30	  78
  30	  80
  30	  85
  30	  89
  30	  90
  30	  92
  30	  93
  30	  95
  30	  96
  30	 100
  30	 103
  30	 106
  30	 109
  30	 110
  30	 111
  30	 116
  30	 118
  31	  36
  31	  37
  31	  40
  31	  44
  31	  46
  31	  47
  31	  48
  31	  50
  31	  51
  31	  53
  31	  56
  31	  57
  31	  58
  31	  59
  31	  61
  31	  63
  31	  67
  31	  68
  31	  69
  31	  70
  31	  71
  31	  73
  31	  75
  31	  78
  31	  81
  31	  88
  31	  91
  31	  94
  31	 102
  31	 104
  31	 105
  31	 108
  31	 112
  31	 113
  31	 115
  31	 118
  32	  33
  32	  35
  32	  39
  32	  40
  32	  45
  32	  46
  32	  58
  32	  59
  32	  60
  32	  61
  32	  62
  32	  64
  32	  65
  32	  66
  32	  67
  32	  69
  32	  70
  32	  74
  32	  77
  32	  78
  32	  79
  32	  82
  32	  84
  32	  86
  32	  87
  32	  89
  32	  91
  32	  93
  32	  99
  32	 101
  32	 111
  32	 112
  33	  34
  33	  36
  33	  38
  33	  44
  33	  50
  33	  51
  33	  53
  33	  54
  33	  56
  33	  57
  33	  58
  33	  59
  33	  65
  33	  66
  33	  67
  33	  71
  33	  74
  33	  75
  33	  77
  33	  81
  33	  82
  33	  92
  33	  93
  33	  94
  33	  97
  33	  98
  33	  99
  33	 100
  33	 101
  33	 103
  33	 104
  33	 105
  33	 109
  33	 110
  33	 117
  33	 119
  34	  35
  34	  46
  34	  50
  34	  51
  34	  55
  34	  56
  34	  61
  34	  62
  34	  64
  34	  70
  34	  71
  34	  74
  34	  79
  34	  81
  34	  85
  34	  86
  34	  88
  34	  92
  34	  99
  34	 100
  34	 103
  34	 104
  34	 106
  34	 107
  34	 112
  34	 117
  34	 119
  35	  36
  35	  37
  35	  48
  35	  50
  35	  51
  35	  52
  35	  56
  35	  57
  35	  58
  35	  65
  35	  71
  35	  75
  35	  76
  35	  78
  35	  79
  35	  84
  35	  88
  35	  89
  35	  90
  35	  91
  35	  94
  35	 101
  35	 102
  35	 104
  35	 107
  35	 110
  35	 111
  35	 113
  35	 114
  35	 116
  35	 117
  36	  39
  36	  40
  36	  43
  36	  44
  36	  45
  36	  47
  36	  50
  36	  54
  36	  60
  36	  63
  36	  64
  36	  65
  36	  68
  36	  72
  36	  73
  36	  74
  36	  75
  36	  77
  36	  78
  36	  79
  36	  81
  36	  82
  36	  83
  36	  86
  36	  88
  36	  89
  36	  90
  36	  91
  36	  93
  36	  94
  36	 100
  36	 102
  36	 107
  36	 108
  36	 114
  36	 116
  36	 118
  37	  38
  37	  39
  37	  40
  37	  47
  37	  48
  37	  49
  37	  51
  37	  52
  37	  58
  37	  63
  37	  68
  37	  70
  37	  71
  37	  81
  37	  82
  37	  87
  37	  94
  37	  98
  37	  99
  37	 101
  37	 102
  37	 107
  37	 108
  37	 109
  37	 112
  37	 113
  37	 117
  37	 119
  38	  44
  38	  45
  38	  46
  38	  47
  38	  51
  38	  52
  38	  53
  38	  56
  38	  61
  38	  65
  38	  66
  38	  68
  38	  69
  38	  70
  38	  71
  38	  73
  38	  74
  38	  78
  38	  80
  38	  81
  38	  84
  38	  86
  38	  89
  38	  93
  38	  95
  38	  96
  38	  99
  38	 101
  38	 102
  38	 105
  38	 107
  38	 108
  38	 114
  38	 115
  39	  40
  39	  41
  39	  48
  39	  49
  39	  57
  39	  66
  39	  67
  39	  68
  39	  69
  39	  72
  39	  76
  39	  78
  39	  81
  39	  82
  39	  85
  39	  90
  39	  91
  39	  92
  39	  93
  39	  94
  39	  96
  39	 100
  39	 103
  39	 107
  39	 108
  39	 112
  39	 117
  39	 119
  40	  42
  40	  43
  40	  46
  40	  49
  40	  52
  40	  53
  40	  55
  40	  58
  40	  59
  40	  63
  40	  68
  40	  69
  40	  73
  40	  76
  40	  80
  40	  83
  40	  84
  40	  85
  40	  86
  40	  88
  40	  89
  40	  90
  40	  96
  40	  97
  40	  99
  40	 110
  40	 113
  40	 114
  40	 115
  40	 118
  40	 119
  41	  43
  41	  44
  41	  46
  41	  48
  41	  50
  41	  51
  41	  53
  41	  54
  41	  56
  41	  57
  41	  58
  41	  60
  41	  63
  41	  70
  41	  71
  41	  72
  41	  73
  41	  75
  41	  77
  41	  78
  41	  79
  41	  82
  41	  84
  41	  88
  41	  91
  41	  92
  41	  95
  41	  96
  41	  97
  41	  98
  41	 101
  41	 104
  41	 105
  41	 106
  41	 107
  41	 110
  41	 112
  41	 113
  41	 114
  41	 115
  41	 116
  41	 118
  42	  43
  42	  45
  42	  46
  42	  47
  42	  49
  42	  53
  42	  56
  42	  60
  42	  61
  42	  66
  42	  68
  42	  69
  42	  71
  42	  73
  42	  74
  42	  78
  42	  79
  42	  81
  42	  82
  42	  84
  42	  86
  42	  89
  42	  91
  42	  92
  42	  93
  42	  96
  42	  99
  42	 100
  42	 102
  42	 104
  42	 106
  42	 109
  42	 111
  42	 114
  42	 115
  42	 117
  42	 118
  42	 119
  43	  47
  43	  49
  43	  52
  43	  57
  43	  58
  43	  59
  43	  60
  43	  63
  43	  67
  43	  68
  43	  69
  43	  70
  43	  76
  43	  77
  43	  79
  43	  81
  43	  83
  43	  86
  43	  87
  43	  88
  43	  90
  43	  91
  43	  95
  43	  97
  43	  98
  43	 100
  43	 103
  43	 104
  43	 108
  43	 111
  43	 117
  44	  50
  44	  52
  44	  55
  44	  56
  44	  63
  44	  65
  44	  66
  44	  70
  44	  72
  44	  73
  44	  78
  44	  84
  44	  90
  44	  93
  44	  97
  44	  99
  44	 100
  44	 102
  44	 104
  44	 106
  44	 110
  44	 115
  44	 117
  45	  47
  45	  51
  45	  56
  45	  57
  45	  58
  45	  60
  45	  62
  45	  70
  45	  72
  45	  74
  45	  75
  45	  76
  45	  78
  45	  81
  45	  84
  45	  86
  45	  87
  45	  88
  45	  90
  45	  92
  45	  94
  45	  96
  45	  98
  45	  99
  45	 101
  45	 102
  45	 104
  45	 105
  45	 106
  45	 113
  45	 115
  45	 119
  46	  47
  46	  51
  46	  53
  46	  55
  46	  56
  46	  57
  46	  60
  46	  65
  46	  68
  46	  69
  46	  73
  46	  76
  46	  77
  46	  78
  46	  79
  46	  81
  46	  82
  46	  83
  46	  84
  46	  87
  46	  90
  46	  96
  46	  97
  46	  99
  46	 101
  46	 106
  46	 107
  46	 109
  46	 110
  46	 113
  46	 116
  47	  48
  47	  51
  47	  56
  47	  61
  47	  67
  47	  68
  47	  69
  47	  73
  47	  74
  47	  75
  47	  77
  47	  78
  47	  79
  47	  80
  47	  85
  47	  86
  47	  87
  47	  91
  47	  93
  47	  94
  47	  96
  47	 100
  47	 102
  47	 103
  47	 105
  47	 108
  47	 109
  47	 110
  47	 111
  47	 112
  47	 115
  47	 118
  48	  49
  48	  50
  48	  54
  48	  55
  48	  56
  48	  62
  48	  63
  48	  65
  48	  69
  48	  70
  48	  71
  48	  75
  48	  76
  48	  78
  48	  81
  48	  83
  48	  86
  48	  87
  48	  88
  48	  90
  48	  91
  48	  93
  48	  94
  48	  98
  48	 101
  48	 102
  48	 104
  48	 105
  48	 107
  48	 111
  48	 112
  48	 114
  49	  50
  49	  51
  49	  53
  49	  54
  49	  59
  49	  61
  49	  63
  49	  67
  49	  69
  49	  72
  49	  74
  49	  75
  49	  80
  49	  82
  49	  84
  49	  85
  49	  94
  49	  96
  49	  99
  49	 100
  49	 104
  49	 105
  49	 107
  49	 108
  49	 110
  49	 111
  49	 112
  49	 117
  49	 118
  50	  54
  50	  55
  50	  56
  50	  59
  50	  64
  50	  68
  50	  77
  50	  81
  50	  83
  50	  85
  50	  88
  50	  93
  50	  94
  50	  95
  50	  97
  50	  98
  50	 100
  50	 106
  50	 107
  50	 110
  50	 111
  50	 113
  50	 116
  50	 118
  51	  55
  51	  56
  51	  57
  51	  60
  51	  63
  51	  64
  51	  67
  51	  69
  51	  71
  51	  72
  51	  78
  51	  80
  51	  82
  51	  83
  51	  91
  51	  95
  51	  96
  51	  99
  51	 102
  51	 103
  51	 104
  51	 110
  51	 113
  51	 115
  51	 117
  51	 118
  51	 119
  52	  54
  52	  55
  52	  56
  52	  57
  52	  59
  52	  62
  52	  63
  52	  68
  52	  69
  52	  72
  52	  76
  52	  77
  52	  80
  52	  82
  52	  85
  52	  86
  52	  87
  52	  90
  52	  95
  52	  96
  52	  97
  52	  98
  52	 102
  52	 106
  52	 109
  52	 115
  52	 116
  52	 119
  53	  55
  53	  62
  53	  63
  53	  66
  53	  68
  53	  69
  53	  71
  53	  74
  53	  75
  53	  76
  53	  77
  53	  79
  53	  82
  53	  86
  53	  88
  53	  92
  53	  93
  53	  94
  53	  98
  53	 100
  53	 101
  53	 105
  53	 108
  53	 109
  53	 114
  53	 115
  53	 117
  53	 119
  54	  55
  54	  57
  54	  58
  54	  59
  54	  64
  54	  71
  54	  72
  54	  73
  54	  74
  54	  75
  54	  81
  54	  83
  54	  84
  54	  90
  54	  91
  54	  93
  54	  94
  54	  95
  54	  98
  54	  99
  54	 101
  54	 102
  54	 104
  54	 105
  54	 109
  54	 111
  54	 113
  54	 114
  54	 117
  54	 119
  55	  58
  55	  59
  55	  60
  55	  62
  55	  65
  55	  69
  55	  71
  55	  75
  55	  78
  55	  79
  55	  80
  55	  81
  55	  82
  55	  83
  55	  84
  55	  85
  55	  90
  55	  96
  55	  99
  55	 101
  55	 102
  55	 103
  55	 104
  55	 108
  55	 110
  55	 112
  55	 114
  55	 116
  55	 117
  56	  59
  56	  63
  56	  64
  56	  66
  56	  68
  56	  70
  56	  72
  56	  74
  56	  81
  56	  84
  56	  85
  56	  86
  56	  89
  56	  90
  56	  95
  56	  97
  56	  99
  56	 100
  56	 108
  56	 110
  56	 117
  57	  58
  57	  61
  57	  62
  57	  69
  57	  72
  57	  75
  57	  83
  57	  87
  57	  89
  57	  91
  57	  92
  57	  93
  57	  94
  57	  98
  57	 100
  57	 104
  57	 106
  57	 108
  57	 111
  57	 112
  58	  61
  58	  69
  58	  73
  58	  76
  58	  79
  58	  80
  58	  81
  58	  85
  58	  89
  58	  91
  58	  97
  58	  98
  58	 100
  58	 101
  58	 103
  58	 107
  58	 108
  58	 109
  58	 110
  58	 115
  58	 117
  58	 119
  59	  60
  59	  64
  59	  65
  59	  68
  59	  71
  59	  78
  59	  80
  59	  81
  59	  84
  59	  86
  59	  91
  59	  94
  59	  99
  59	 100
  59	 104
  59	 110
  59	 112
  59	 114
  59	 118
  60	  62
  60	  67
  60	  68
  60	  74
  60	  78
  60	  81
  60	  82
  60	  86
  60	  88
  60	  89
  60	  96
  60	 100
  60	 103
  60	 105
  60	 106
  60	 107
  60	 113
  60	 115
  60	 119
  61	  62
  61	  65
  61	  68
  61	  70
  61	  72
  61	  73
  61	  75
  61	  76
  61	  81
  61	  83
  61	  84
  61	  86
  61	  87
  61	  90
  61	  94
  61	  97
  61	 100
  61	 102
  61	 105
  61	 107
  61	 112
  61	 113
  61	 118
  62	  63
  62	  65
  62	  66
  62	  68
  62	  72
  62	  73
  62	  76
  62	  78
  62	  87
  62	  90
  62	  93
  62	  95
  62	  98
  62	  99
  62	 100
  62	 103
  62	 104
  62	 114
  62	 115
  62	 116
  62	 117
  62	 118
  63	  64
  63	  67
  63	  68
  63	  75
  63	  77
  63	  85
  63	  91
  63	  96
  63	  99
  63	 105
  63	 107
  63	 112
  63	 116
  63	 118
  63	 119
  64	  65
  64	  67
  64	  68
  64	  69
  64	  70
  64	  71
  64	  75
  64	  76
  64	  88
  64	  89
  64	  90
  64	  91
  64	  95
  64	  96
  64	  97
  64	  98
  64	  99
  64	 100
  64	 105
  64	 107
  64	 108
  64	 112
  64	 113
  64	 115
  64	 116
  65	  66
  65	  67
  65	  69
  65	  71
  65	  73
  65	  74
  65	  75
  65	  76
  65	  77
  65	  78
  65	  79
  65	  82
  65	  89
  65	  90
  65	  91
  65	  93
  65	  94
  65	  96
  65	  97
  65	  98
  65	 100
  65	 102
  65	 105
  65	 106
  65	 107
  65	 115
  65	 116
  65	 117
  65	 118
  66	  67
  66	  68
  66	  70
  66	  73
  66	  74
  66	  77
  66	  78
  66	  79
  66	  80
  66	  91
  66	  92
  66	  94
  66	  95
  66	 100
  66	 101
  66	 102
  66	 106
  66	 109
  66	 110
  66	 115
  67	  68
  67	  70
  67	  74
  67	  78
  67	  80
  67	  83
  67	  87
  67	  89
  67	  92
  67	  93
  67	  94
  67	  96
  67	  99
  67	 100
  67	 102
  67	 103
  67	 107
  67	 108
  67	 114
  67	 115
  67	 119
  68	  71
  68	  72
  68	  73
  68	  76
  68	  77
  68	  78
  68	  80
  68	  81
  68	  86
  68	  89
  68	  91
  68	  93
  68	  95
  68	  97
  68	  98
  68	 101
  68	 102
  68	 107
  68	 109
  68	 111
  68	 115
  68	 116
  69	  76
  69	  78
  69	  80
  69	  82
  69	  84
  69	  88
  69	  94
  69	  97
  69	 100
  69	 104
  69	 105
  69	 106
  69	 108
  69	 109
  69	 110
  69	 112
  69	 113
  69	 115
  70	  71
  70	  73
  70	  75
  70	  76
  70	  81
  70	  83
  70	  86
  70	  87
  70	  88
  70	  90
  70	 101
  70	 102
  70	 103
  70	 106
  70	 107
  70	 109
  70	 113
  70	 114
  70	 117
  70	 118
  71	  75
  71	  79
  71	  80
  71	  85
  71	  90
  71	  91
  71	  95
  71	  96
  71	  97
  71	 101
  71	 106
  71	 112
  71	 117
  71	 118
  71	 119
  72	  73
  72	  75
  72	  76
  72	  78
  72	  79
  72	  80
  72	  81
  72	  82
  72	  83
  72	  85
  72	  86
  72	  87
  72	  93
  72	  96
  72	  98
  72	 106
  72	 109
  72	 110
  72	 114
  73	  75
  73	  76
  73	  81
  73	  82
  73	  88
  73	  94
  73	  96
  73	  98
  73	 100
  73	 112
  73	 113
  73	 114
  73	 117
  74	  79
  74	  81
  74	  83
  74	  85
  74	  87
  74	  93
  74	  94
  74	  95
  74	  96
  74	 100
  74	 101
  74	 105
  74	 111
  74	 113
  74	 114
  74	 119
  75	  76
  75	  81
  75	  82
  75	  83
  75	  84
  75	  88
  75	  89
  75	  92
  75	  93
  75	  94
  75	  95
  75	  96
  75	  97
  75	  98
  75	  99
  75	 100
  75	 105
  75	 106
  75	 109
  75	 111
  75	 119
  76	  82
  76	  84
  76	  85
  76	  89
  76	  90
  76	  93
  76	  95
  76	  98
  76	  99
  76	 100
  76	 101
  76	 102
  76	 107
  76	 112
  76	 113
  76	 114
  76	 117
  76	 118
  77	  78
  77	  79
  77	  81
  77	  84
  77	  85
  77	  86
  77	  87
  77	  89
  77	  92
  77	  94
  77	  97
  77	  98
  77	 100
  77	 105
  77	 106
  77	 109
  77	 110
  77	 117
  78	  84
  78	  85
  78	  87
  78	  90
  78	  91
  78	  92
  78	  97
  78	  99
  78	 105
  78	 106
  78	 107
  78	 108
  78	 110
  78	 114
  78	 115
  78	 116
  78	 119
  79	  80
  79	  85
  79	  90
  79	  96
  79	  97
  79	  98
  79	  99
  79	 100
  79	 103
  79	 106
  79	 108
  79	 109
  79	 113
  79	 114
  80	  82
  80	  85
  80	  94
  80	  95
  80	 100
  80	 101
  80	 102
  80	 104
  80	 106
  80	 107
  80	 109
  80	 114
  80	 118
  81	  82
  81	  88
  81	  89
  81	  91
  81	  93
  81	  95
  81	  97
  81	 101
  81	 105
  81	 107
  81	 108
  81	 110
  81	 113
  81	 115
  81	 118
  82	  88
  82	  92
  82	  96
  82	  98
  82	 101
  82	 105
  82	 108
  82	 109
  82	 110
  82	 112
  82	 113
  82	 114
  82	 119
  83	  86
  83	  88
  83	  92
  83	  93
  83	  98
  83	  99
  83	 102
  83	 104
  83	 107
  83	 111
  83	 114
  83	 117
  83	 119
  84	  87
  84	  90
  84	  92
  84	  94
  84	  96
  84	  97
  84	 101
  84	 102
  84	 104
  84	 106
  84	 108
  84	 109
  84	 110
  84	 114
  84	 116
  84	 118
  85	  86
  85	  87
  85	  88
  85	  91
  85	  95
  85	 105
  85	 106
  85	 107
  85	 108
  85	 109
  85	 111
  85	 112
  85	 113
  85	 115
  85	 116
  85	 117
  86	  94
  86	  98
  86	 100
  86	 105
  86	 106
  86	 108
  86	 109
  86	 110
  86	 112
  86	 113
  86	 114
  86	 116
  86	 117
  86	 118
  86	 119
  87	  90
  87	  94
  87	  95
  87	 101
  87	 102
  87	 107
  87	 110
  87	 113
  87	 115
  87	 116
  87	 118
  88	  93
  88	  97
  88	 101
  88	 107
  88	 108
  88	 109
  88	 111
  88	 112
  88	 114
  88	 115
  88	 116
  88	 118
  89	  90
  89	  93
  89	  97
  89	 103
  89	 104
  89	 105
  89	 106
  89	 110
  89	 114
  89	 115
  89	 117
  90	  91
  90	  95
  90	  98
  90	  99
  90	 102
  90	 103
  90	 109
  90	 114
  90	 115
  90	 118
  90	 119
  91	  92
  91	  96
  91	 100
  91	 102
  91	 104
  91	 109
  91	 111
  91	 114
  91	 116
  91	 117
  91	 118
  91	 119
  92	  93
  92	  94
  92	  96
  92	  97
  92	 100
  92	 103
  92	 108
  92	 114
  92	 115
  92	 117
  92	 118
  93	  96
  93	 100
  93	 101
  93	 105
  93	 106
  93	 107
  93	 110
  93	 111
  93	 114
  93	 115
  93	 116
  93	 117
  94	  97
  94	  99
  94	 101
  94	 104
  94	 106
  94	 107
  94	 113
  95	  98
  95	 102
  95	 105
  95	 106
  95	 108
  95	 109
  95	 110
  95	 111
  95	 112
  95	 115
  95	 116
  95	 117
  96	 102
  96	 103
  96	 104
  96	 105
  96	 106
  96	 109
  96	 111
  96	 112
  96	 113
  96	 115
  96	 116
  96	 118
  97	  98
  97	 101
  97	 103
  97	 107
  97	 108
  97	 112
  97	 113
  97	 116
  97	 118
  98	 105
  98	 107
  98	 109
  98	 113
  98	 114
  98	 115
  98	 117
  98	 119
  99	 100
  99	 101
  99	 105
  99	 108
  99	 110
  99	 112
  99	 113
  99	 114
  99	 117
  99	 119
 100	 103
 100	 104
 100	 105
 100	 107
 100	 109
 100	 110
 100	 113
 100	 114
 100	 115
 100	 116
 100	 119
 101	 103
 101	 104
 101	 107
 101	 112
 101	 113
 101	 114
 101	 116
 101	 119
 102	 103
 102	 106
 102	 108
 102	 109
 102	 114
 102	 116
 102	 117
 103	 104
 103	 105
 103	 106
 103	 108
 103	 117
 103	 118
 103	 119
 104	 107
 104	 108
 104	 112
 104	 118
 104	 119
 105	 108
 105	 111
 105	 112
 105	 114
 105	 116
 105	 118
 106	 109
 106	 112
 106	 113
 106	 114
 106	 115
 106	 116
 106	 119
 107	 109
 107	 110
 107	 112
 107	 113
 107	 115
 107	 119
 108	 109
 108	 111
 108	 117
 108	 118
 109	 115
 109	 116
 109	 117
 109	 118
 109	 119
 110	 111
 110	 113
 110	 114
 110	 116
 110	 117
 110	 119
 111	 112
 111	 116
 111	 117
 111	 118
 111	 119
 112	 118
 112	 119
 113	 115
 113	 118
 114	 117
 114	 118
 114	 119
 115	 116
 115	 117
 115	 118
 116	 117
 116	 118
 117	 119
 118	 119
;
